Gurobi Optimizer version 9.1.2 build v9.1.2rc0 (linux64)
Thread count: 36 physical cores, 72 logical processors, using up to 32 threads
Optimize a model with 12 rows, 57 columns and 590 nonzeros
Model fingerprint: 0xf32eec78
Model has 47 quadratic constraints
Coefficient statistics:
  Matrix range     [2e-05, 3e+00]
  QMatrix range    [1e+00, 1e+00]
  QLMatrix range   [1e+00, 1e+00]
  Objective range  [8e-03, 7e-01]
  Bounds range     [1e+00, 1e+00]
  RHS range        [1e+00, 1e+00]
Presolve removed 9 rows and 0 columns

Continuous model is non-convex -- solving as a MIP.

Presolve removed 9 rows and 0 columns
Presolve time: 0.00s
Presolved: 189 rows, 57 columns, 443 nonzeros
Presolved model has 47 bilinear constraint(s)
Variable types: 57 continuous, 0 integer (0 binary)

Root relaxation: objective -1.743721e+00, 44 iterations, 0.00 seconds

    Nodes    |    Current Node    |     Objective Bounds      |     Work
 Expl Unexpl |  Obj  Depth IntInf | Incumbent    BestBd   Gap | It/Node Time

     0     0   -1.74372    0   38          -   -1.74372      -     -    0s
H    0     0                       0.6147548   -1.74372   384%     -    0s
     0     0   -1.64739    0    1    0.61475   -1.64739   368%     -    0s
H    0     0                      -1.6450460   -1.64739  0.14%     -    0s
     0     0     cutoff    0        -1.64505   -1.64505  0.00%     -    0s

Cutting planes:
  RLT: 25
  BQP: 3

Explored 1 nodes (76 simplex iterations) in 0.01 seconds
Thread count was 32 (of 72 available processors)

Solution count 2: -1.64505 0.614755 
No other solutions better than -1.64505

Optimal solution found (tolerance 1.00e-04)
Best objective -1.645045978473e+00, best bound -1.645045978473e+00, gap 0.0000%

User-callback calls 78, time in user-callback 0.00 sec
Gurobi Optimizer version 9.1.2 build v9.1.2rc0 (linux64)
Thread count: 36 physical cores, 72 logical processors, using up to 32 threads
Optimize a model with 24 rows, 125 columns and 2580 nonzeros
Model fingerprint: 0x1f29120e
Model has 105 quadratic constraints
Coefficient statistics:
  Matrix range     [6e-06, 5e+01]
  QMatrix range    [1e+00, 1e+00]
  QLMatrix range   [1e+00, 1e+00]
  Objective range  [9e-03, 1e+00]
  Bounds range     [1e+00, 1e+00]
  RHS range        [1e+00, 1e+00]
Presolve removed 10 rows and 0 columns

Continuous model is non-convex -- solving as a MIP.

Presolve removed 10 rows and 0 columns
Presolve time: 0.00s
Presolved: 429 rows, 125 columns, 2142 nonzeros
Presolved model has 105 bilinear constraint(s)
Variable types: 125 continuous, 0 integer (0 binary)

Root relaxation: objective -5.780846e+00, 130 iterations, 0.00 seconds

    Nodes    |    Current Node    |     Objective Bounds      |     Work
 Expl Unexpl |  Obj  Depth IntInf | Incumbent    BestBd   Gap | It/Node Time

     0     0   -5.78085    0   75          -   -5.78085      -     -    0s
H    0     0                       0.2987633   -5.78085  2035%     -    0s
     0     0   -4.34823    0   83    0.29876   -4.34823  1555%     -    0s
H    0     0                      -0.9251386   -4.34823   370%     -    0s
     0     0   -4.27274    0   70   -0.92514   -4.27274   362%     -    0s
     0     0   -4.13369    0   70   -0.92514   -4.13369   347%     -    0s
H    0     0                      -1.8846021   -4.13369   119%     -    0s
     0     0   -4.12971    0   62   -1.88460   -4.12971   119%     -    0s
     0     0   -4.08757    0   70   -1.88460   -4.08757   117%     -    0s
     0     0   -4.07832    0   62   -1.88460   -4.07832   116%     -    0s
     0     0   -4.07540    0   61   -1.88460   -4.07540   116%     -    0s
     0     0   -4.07506    0   61   -1.88460   -4.07506   116%     -    0s
     0     0   -4.07475    0   61   -1.88460   -4.07475   116%     -    0s
     0     0   -4.07444    0   61   -1.88460   -4.07444   116%     -    0s
     0     0   -4.07434    0   61   -1.88460   -4.07434   116%     -    0s
H    0     0                      -3.0471587   -4.07434  33.7%     -    0s
H    0     0                      -3.1351694   -4.07434  30.0%     -    0s
H    0     0                      -3.1542499   -4.07434  29.2%     -    0s
     0     2   -4.07434    0   61   -3.15425   -4.07434  29.2%     -    0s
*  456   317              15      -3.1666049   -3.70272  16.9%  27.0    0s
*  551   401              16      -3.1669817   -3.70272  16.9%  24.0    0s
*  574   513              21      -3.1743901   -3.70272  16.6%  23.3    0s
*  667   513              23      -3.1766760   -3.70272  16.6%  21.0    0s
*  668   513              23      -3.1766820   -3.70272  16.6%  21.0    0s
*  728   609              14      -3.2131190   -3.59943  12.0%  20.0    0s
*  736   609              30      -3.3479230   -3.59943  7.51%  19.8    0s
*  898   579              30      -3.3479598   -3.59943  7.51%  17.6    0s
*  900   579              30      -3.3486527   -3.59943  7.49%  17.6    0s
*  902   579              31      -3.3486769   -3.59943  7.49%  17.5    0s
*  903   579              31      -3.3486771   -3.59943  7.49%  17.5    0s
*  926   579              19      -3.3983040   -3.59943  5.92%  17.2    0s
* 1099   639              26      -3.4109437   -3.58580  5.13%  16.0    0s
* 1100   639              26      -3.4109448   -3.58580  5.13%  15.9    0s
* 1120   639              26      -3.4112955   -3.58580  5.12%  15.8    0s
* 1122   639              27      -3.4115964   -3.58580  5.11%  15.8    0s
* 1123   639              27      -3.4115969   -3.58580  5.11%  15.8    0s
* 1174   639              21      -3.4122865   -3.58580  5.08%  15.6    0s
* 1258   639              21      -3.4275131   -3.58580  4.62%  14.9    0s
* 1318   632              19      -3.4425755   -3.50734  1.88%  14.6    0s
* 1596   444              22      -3.4439770   -3.50734  1.84%  13.0    0s
* 1597   444              22      -3.4439824   -3.50734  1.84%  12.9    0s
* 1613   444              18      -3.4444627   -3.50734  1.83%  12.9    0s
* 1622   444              22      -3.4458178   -3.50734  1.79%  12.8    0s
* 1857   450              26      -3.4460700   -3.46871  0.66%  11.3    0s
* 1858   450              26      -3.4461558   -3.46871  0.65%  11.3    0s
* 1861   450              27      -3.4463273   -3.46871  0.65%  11.3    0s
* 1862   450              27      -3.4463865   -3.46871  0.65%  11.3    0s
* 1863   450              26      -3.4466133   -3.46871  0.64%  11.3    0s
* 1898   450              23      -3.4494567   -3.46494  0.45%  11.2    0s
* 1928   450              20      -3.4498429   -3.46494  0.44%  11.1    0s
* 1930   450              21      -3.4498504   -3.46494  0.44%  11.1    0s
* 1989   450              20      -3.4498690   -3.46494  0.44%  10.9    0s
* 2256   179              17      -3.4502791   -3.46361  0.39%  10.0    0s
* 2258   179              18      -3.4505544   -3.46361  0.38%  10.0    0s
* 2274   179              20      -3.4508628   -3.46361  0.37%  10.0    0s
* 2276   179              21      -3.4508639   -3.46361  0.37%  10.0    0s
* 2498   179              22      -3.4510818   -3.46361  0.36%   9.2    0s
* 2500   179              23      -3.4510832   -3.46361  0.36%   9.2    0s
* 2513   179              17      -3.4512589   -3.46361  0.36%   9.2    0s
* 2706    16              22      -3.4513053   -3.45198  0.02%   8.6    0s
* 2709    16              22      -3.4513078   -3.45198  0.02%   8.6    0s
* 2723    16              18      -3.4513496   -3.45189  0.02%   8.6    0s
* 2726    16              20      -3.4513868   -3.45189  0.01%   8.6    0s
* 2727    16              20      -3.4513870   -3.45189  0.01%   8.6    0s
* 2758    16              19      -3.4514132   -3.45189  0.01%   8.5    0s
* 2769    16              19      -3.4514220   -3.45189  0.01%   8.5    0s
* 2881     3              21      -3.4514276   -3.45155  0.00%   8.2    0s
* 2882     3              21      -3.4514284   -3.45155  0.00%   8.2    0s
* 2887     3              22      -3.4514438   -3.45155  0.00%   8.2    0s

Cutting planes:
  RLT: 45
  BQP: 10
  PSD: 36

Explored 2907 nodes (23944 simplex iterations) in 0.61 seconds
Thread count was 32 (of 72 available processors)

Solution count 10: -3.45144 -3.45143 -3.45143 ... -3.45126

Optimal solution found (tolerance 1.00e-04)
Best objective -3.451443812728e+00, best bound -3.451552092904e+00, gap 0.0031%

User-callback calls 6173, time in user-callback 0.00 sec



objective value: -3.4514438127279505
objective bound: -3.4515520929038117
x_opt: [1.0, 0.0, 1.0, 0.0, 0.19671248554387427, 0.0, 1.0, 1.0, 0.45611091879510385, 0.0, 0.0, 0.0, 0.7918315703728015, 0.0, 0.4550915166111675, 0.3190967027841211, 0.0, 0.0, 0.0, 0.0]
GUROBI solution time: 0.6096339225769043




